(set-info :smt-lib-version 2.6)
(set-logic QF_NIA)
(set-info :source |
Generated by: Cristina Borralleras, Daniel Larraz, Albert Oliveras, Enric Rodriguez-Carbonell, Albert Rubio
Generated on: 2017-04-27
Generator: VeryMax
Application: Termination proving
Target solver: barcelogic
|)
(set-info :license "https://creativecommons.org/licenses/by/4.0/")
(set-info :category "industrial")
(set-info :status unknown)
(declare-fun Nl3arg11 () Int)
(declare-fun Nl3arg21 () Int)
(declare-fun Nl3arg31 () Int)
(declare-fun Nl3arg41 () Int)
(declare-fun Nl3arg51 () Int)
(declare-fun Nl3arg61 () Int)
(declare-fun Nl3arg12 () Int)
(declare-fun Nl3arg22 () Int)
(declare-fun Nl3arg32 () Int)
(declare-fun Nl3arg42 () Int)
(declare-fun Nl3arg52 () Int)
(declare-fun Nl3arg62 () Int)
(declare-fun lam0n0 () Int)
(declare-fun lam0n1 () Int)
(declare-fun lam0n2 () Int)
(declare-fun lam0n3 () Int)
(declare-fun lam0n4 () Int)
(declare-fun lam0n5 () Int)
(declare-fun UndefCntr0_CT () Int)
(declare-fun Nl3CT1 () Int)
(declare-fun Nl3CT2 () Int)
(declare-fun UndefCntr0_arg1 () Int)
(declare-fun UndefCntr0_arg2 () Int)
(declare-fun UndefCntr0_arg3 () Int)
(declare-fun UndefCntr0_arg4 () Int)
(declare-fun UndefCntr0_arg5 () Int)
(declare-fun UndefCntr0_arg6 () Int)
(declare-fun UndefCntr0_undef20 () Int)
(declare-fun UndefCntr0_undef21 () Int)
(declare-fun UndefCntr0_undef22 () Int)
(declare-fun UndefCntr0_undef23 () Int)
(declare-fun UndefCntr0_undef24 () Int)
(declare-fun UndefCntr0_undef25 () Int)
(declare-fun lam1n0 () Int)
(declare-fun lam1n1 () Int)
(declare-fun lam1n2 () Int)
(declare-fun lam1n3 () Int)
(declare-fun lam1n4 () Int)
(declare-fun lam1n5 () Int)
(declare-fun lam2n0 () Int)
(declare-fun lam2n1 () Int)
(declare-fun lam2n2 () Int)
(declare-fun lam2n3 () Int)
(declare-fun lam2n4 () Int)
(declare-fun lam2n5 () Int)
(declare-fun lam3n0 () Int)
(declare-fun lam3n1 () Int)
(declare-fun lam3n2 () Int)
(declare-fun lam3n3 () Int)
(declare-fun lam3n4 () Int)
(declare-fun lam3n5 () Int)
(declare-fun UndefCntr1_CT () Int)
(declare-fun UndefCntr1_arg1 () Int)
(declare-fun UndefCntr1_arg2 () Int)
(declare-fun UndefCntr1_arg3 () Int)
(declare-fun UndefCntr1_arg4 () Int)
(declare-fun UndefCntr1_arg5 () Int)
(declare-fun UndefCntr1_arg6 () Int)
(declare-fun UndefCntr1_undef26 () Int)
(declare-fun UndefCntr1_undef27 () Int)
(declare-fun UndefCntr1_undef28 () Int)
(declare-fun UndefCntr1_undef29 () Int)
(declare-fun UndefCntr1_undef30 () Int)
(declare-fun UndefCntr1_undef31 () Int)
(declare-fun lam4n0 () Int)
(declare-fun lam4n1 () Int)
(declare-fun lam4n2 () Int)
(declare-fun lam4n3 () Int)
(declare-fun lam4n4 () Int)
(declare-fun lam4n5 () Int)
(declare-fun lam5n0 () Int)
(declare-fun lam5n1 () Int)
(declare-fun lam5n2 () Int)
(declare-fun lam5n3 () Int)
(declare-fun lam5n4 () Int)
(declare-fun lam5n5 () Int)
(declare-fun lam6n0 () Int)
(declare-fun lam6n1 () Int)
(declare-fun lam6n2 () Int)
(declare-fun lam6n3 () Int)
(declare-fun lam6n4 () Int)
(declare-fun lam7n0 () Int)
(declare-fun lam7n1 () Int)
(declare-fun lam7n2 () Int)
(declare-fun lam7n3 () Int)
(declare-fun lam7n4 () Int)
(declare-fun arg1 () Int)
(declare-fun arg2 () Int)
(declare-fun undef14 () Int)
(declare-fun arg3 () Int)
(declare-fun undef15 () Int)
(declare-fun undef16 () Int)
(declare-fun undef17 () Int)
(declare-fun undef18 () Int)
(declare-fun undef19 () Int)
(declare-fun FV_arg1_2 () Int)
(declare-fun FV_arg2_2 () Int)
(declare-fun FV_arg3_2 () Int)
(declare-fun FV_arg4_2 () Int)
(declare-fun FV_arg5_2 () Int)
(declare-fun FV_arg6_2 () Int)
(declare-fun lam8n0 () Int)
(declare-fun lam8n1 () Int)
(declare-fun lam8n2 () Int)
(declare-fun lam9n0 () Int)
(declare-fun lam9n1 () Int)
(declare-fun lam9n2 () Int)
(declare-fun UndefDef0undef20_CT () Int)
(declare-fun UndefDef0undef20_arg1 () Int)
(declare-fun UndefDef0undef20_arg2 () Int)
(declare-fun UndefDef0undef20_arg3 () Int)
(declare-fun UndefDef0undef20_arg4 () Int)
(declare-fun UndefDef0undef20_arg5 () Int)
(declare-fun UndefDef0undef20_arg6 () Int)
(declare-fun lam10n0 () Int)
(declare-fun lam10n1 () Int)
(declare-fun lam10n2 () Int)
(declare-fun lam11n0 () Int)
(declare-fun lam11n1 () Int)
(declare-fun lam11n2 () Int)
(declare-fun lam12n0 () Int)
(declare-fun lam12n1 () Int)
(declare-fun lam12n2 () Int)
(declare-fun lam13n0 () Int)
(declare-fun lam13n1 () Int)
(declare-fun lam13n2 () Int)
(declare-fun UndefDef1undef26_CT () Int)
(declare-fun UndefDef1undef26_arg1 () Int)
(declare-fun UndefDef1undef26_arg2 () Int)
(declare-fun UndefDef1undef26_arg3 () Int)
(declare-fun UndefDef1undef26_arg4 () Int)
(declare-fun UndefDef1undef26_arg5 () Int)
(declare-fun UndefDef1undef26_arg6 () Int)
(declare-fun lam14n0 () Int)
(declare-fun lam14n1 () Int)
(declare-fun lam14n2 () Int)
(declare-fun lam15n0 () Int)
(declare-fun lam15n1 () Int)
(declare-fun lam15n2 () Int)
(declare-fun lam16n0 () Int)
(declare-fun lam16n1 () Int)
(declare-fun lam16n2 () Int)
(declare-fun FV_arg1_3 () Int)
(declare-fun FV_arg2_3 () Int)
(declare-fun FV_arg3_3 () Int)
(declare-fun FV_arg4_3 () Int)
(declare-fun FV_arg5_3 () Int)
(declare-fun FV_arg6_3 () Int)
(declare-fun FV_undef20_3 () Int)
(declare-fun FV_undef26_3 () Int)
(assert ( and ( <= ( - 1 ) Nl3arg11 ) ( <= Nl3arg11 1 ) ( <= ( - 1 ) Nl3arg21 ) ( <= Nl3arg21 1 ) ( <= ( - 1 ) Nl3arg31 ) ( <= Nl3arg31 1 ) ( <= ( - 1 ) Nl3arg41 ) ( <= Nl3arg41 1 ) ( <= ( - 1 ) Nl3arg51 ) ( <= Nl3arg51 1 ) ( <= ( - 1 ) Nl3arg61 ) ( <= Nl3arg61 1 ) ( <= ( - 1 ) Nl3arg12 ) ( <= Nl3arg12 1 ) ( <= ( - 1 ) Nl3arg22 ) ( <= Nl3arg22 1 ) ( <= ( - 1 ) Nl3arg32 ) ( <= Nl3arg32 1 ) ( <= ( - 1 ) Nl3arg42 ) ( <= Nl3arg42 1 ) ( <= ( - 1 ) Nl3arg52 ) ( <= Nl3arg52 1 ) ( <= ( - 1 ) Nl3arg62 ) ( <= Nl3arg62 1 ) ))
(assert ( or ( and ( >= lam0n0 0 ) ( >= lam0n1 0 ) ( >= lam0n2 0 ) ( >= lam0n3 0 ) ( >= lam0n4 0 ) ( >= lam0n5 0 ) ( > ( + ( * 2 lam0n1 ) ( * 3 lam0n2 ) ( * UndefCntr0_CT lam0n3 ) ( * Nl3CT1 lam0n4 ) ( * Nl3CT2 lam0n5 ) ( - 1 ) ) 0 ) ( = ( + ( * ( - 1 ) lam0n1 ) ( * ( - 1 ) lam0n2 ) ( * UndefCntr0_arg1 lam0n3 ) ( * Nl3arg11 lam0n4 ) ( * Nl3arg12 lam0n5 ) ) 0 ) ( = ( + ( * UndefCntr0_arg2 lam0n3 ) ( * Nl3arg21 lam0n4 ) ( * Nl3arg22 lam0n5 ) ) 0 ) ( = ( + ( * UndefCntr0_arg3 lam0n3 ) ( * Nl3arg31 lam0n4 ) ( * Nl3arg32 lam0n5 ) ) 0 ) ( = ( + ( * UndefCntr0_arg4 lam0n3 ) ( * Nl3arg41 lam0n4 ) ( * Nl3arg42 lam0n5 ) ) 0 ) ( = ( + ( * UndefCntr0_arg5 lam0n3 ) ( * Nl3arg51 lam0n4 ) ( * Nl3arg52 lam0n5 ) ) 0 ) ( = ( + ( * UndefCntr0_arg6 lam0n3 ) ( * Nl3arg61 lam0n4 ) ( * Nl3arg62 lam0n5 ) ) 0 ) ( = ( + ( * ( - 1 ) lam0n0 ) ( * 1 lam0n1 ) ( * UndefCntr0_undef20 lam0n3 ) ) 0 ) ( = ( * UndefCntr0_undef21 lam0n3 ) 0 ) ( = ( * UndefCntr0_undef22 lam0n3 ) 0 ) ( = ( * UndefCntr0_undef23 lam0n3 ) 0 ) ( = ( * UndefCntr0_undef24 lam0n3 ) 0 ) ( = ( * UndefCntr0_undef25 lam0n3 ) 0 ) ) ( and ( >= lam1n0 0 ) ( >= lam1n1 0 ) ( >= lam1n2 0 ) ( >= lam1n3 0 ) ( >= lam1n4 0 ) ( >= lam1n5 0 ) ( > ( + ( * 2 lam1n1 ) ( * 3 lam1n2 ) ( * UndefCntr0_CT lam1n3 ) ( * Nl3CT1 lam1n4 ) ( * Nl3CT2 lam1n5 ) ( - 1 ( + ( + ( + ( + ( + ( + Nl3CT1 ( * Nl3arg11 0 ) ) ( * Nl3arg21 0 ) ) ( * Nl3arg31 0 ) ) ( * Nl3arg41 0 ) ) ( * Nl3arg51 0 ) ) ( * Nl3arg61 0 ) ) ) ) 0 ) ( = ( + ( * ( - 1 ) lam1n1 ) ( * ( - 1 ) lam1n2 ) ( * UndefCntr0_arg1 lam1n3 ) ( * Nl3arg11 lam1n4 ) ( * Nl3arg12 lam1n5 ) ) 0 ) ( = ( + ( * UndefCntr0_arg2 lam1n3 ) ( * Nl3arg21 lam1n4 ) ( * Nl3arg22 lam1n5 ) ) 0 ) ( = ( + ( * UndefCntr0_arg3 lam1n3 ) ( * Nl3arg31 lam1n4 ) ( * Nl3arg32 lam1n5 ) ) 0 ) ( = ( + ( * UndefCntr0_arg4 lam1n3 ) ( * Nl3arg41 lam1n4 ) ( * Nl3arg42 lam1n5 ) ) 0 ) ( = ( + ( * UndefCntr0_arg5 lam1n3 ) ( * Nl3arg51 lam1n4 ) ( * Nl3arg52 lam1n5 ) ) 0 ) ( = ( + ( * UndefCntr0_arg6 lam1n3 ) ( * Nl3arg61 lam1n4 ) ( * Nl3arg62 lam1n5 ) ) 0 ) ( = ( + ( * ( - 1 ) lam1n0 ) ( * 1 lam1n1 ) ( * UndefCntr0_undef20 lam1n3 ) ( - ( + 0 ( * Nl3arg11 1 ) ) ) ) 0 ) ( = ( + ( * UndefCntr0_undef21 lam1n3 ) ( - ( + 0 ( * Nl3arg21 1 ) ) ) ) 0 ) ( = ( + ( * UndefCntr0_undef22 lam1n3 ) ( - ( + 0 ( * Nl3arg31 1 ) ) ) ) 0 ) ( = ( + ( * UndefCntr0_undef23 lam1n3 ) ( - ( + 0 ( * Nl3arg41 1 ) ) ) ) 0 ) ( = ( + ( * UndefCntr0_undef24 lam1n3 ) ( - ( + 0 ( * Nl3arg51 1 ) ) ) ) 0 ) ( = ( + ( * UndefCntr0_undef25 lam1n3 ) ( - ( + 0 ( * Nl3arg61 1 ) ) ) ) 0 ) ) ))
(assert ( or ( and ( >= lam0n0 0 ) ( >= lam0n1 0 ) ( >= lam0n2 0 ) ( >= lam0n3 0 ) ( >= lam0n4 0 ) ( >= lam0n5 0 ) ( > ( + ( * 2 lam0n1 ) ( * 3 lam0n2 ) ( * UndefCntr0_CT lam0n3 ) ( * Nl3CT1 lam0n4 ) ( * Nl3CT2 lam0n5 ) ( - 1 ) ) 0 ) ( = ( + ( * ( - 1 ) lam0n1 ) ( * ( - 1 ) lam0n2 ) ( * UndefCntr0_arg1 lam0n3 ) ( * Nl3arg11 lam0n4 ) ( * Nl3arg12 lam0n5 ) ) 0 ) ( = ( + ( * UndefCntr0_arg2 lam0n3 ) ( * Nl3arg21 lam0n4 ) ( * Nl3arg22 lam0n5 ) ) 0 ) ( = ( + ( * UndefCntr0_arg3 lam0n3 ) ( * Nl3arg31 lam0n4 ) ( * Nl3arg32 lam0n5 ) ) 0 ) ( = ( + ( * UndefCntr0_arg4 lam0n3 ) ( * Nl3arg41 lam0n4 ) ( * Nl3arg42 lam0n5 ) ) 0 ) ( = ( + ( * UndefCntr0_arg5 lam0n3 ) ( * Nl3arg51 lam0n4 ) ( * Nl3arg52 lam0n5 ) ) 0 ) ( = ( + ( * UndefCntr0_arg6 lam0n3 ) ( * Nl3arg61 lam0n4 ) ( * Nl3arg62 lam0n5 ) ) 0 ) ( = ( + ( * ( - 1 ) lam0n0 ) ( * 1 lam0n1 ) ( * UndefCntr0_undef20 lam0n3 ) ) 0 ) ( = ( * UndefCntr0_undef21 lam0n3 ) 0 ) ( = ( * UndefCntr0_undef22 lam0n3 ) 0 ) ( = ( * UndefCntr0_undef23 lam0n3 ) 0 ) ( = ( * UndefCntr0_undef24 lam0n3 ) 0 ) ( = ( * UndefCntr0_undef25 lam0n3 ) 0 ) ) ( and ( >= lam2n0 0 ) ( >= lam2n1 0 ) ( >= lam2n2 0 ) ( >= lam2n3 0 ) ( >= lam2n4 0 ) ( >= lam2n5 0 ) ( > ( + ( * 2 lam2n1 ) ( * 3 lam2n2 ) ( * UndefCntr0_CT lam2n3 ) ( * Nl3CT1 lam2n4 ) ( * Nl3CT2 lam2n5 ) ( - 1 ( + ( + ( + ( + ( + ( + Nl3CT2 ( * Nl3arg12 0 ) ) ( * Nl3arg22 0 ) ) ( * Nl3arg32 0 ) ) ( * Nl3arg42 0 ) ) ( * Nl3arg52 0 ) ) ( * Nl3arg62 0 ) ) ) ) 0 ) ( = ( + ( * ( - 1 ) lam2n1 ) ( * ( - 1 ) lam2n2 ) ( * UndefCntr0_arg1 lam2n3 ) ( * Nl3arg11 lam2n4 ) ( * Nl3arg12 lam2n5 ) ) 0 ) ( = ( + ( * UndefCntr0_arg2 lam2n3 ) ( * Nl3arg21 lam2n4 ) ( * Nl3arg22 lam2n5 ) ) 0 ) ( = ( + ( * UndefCntr0_arg3 lam2n3 ) ( * Nl3arg31 lam2n4 ) ( * Nl3arg32 lam2n5 ) ) 0 ) ( = ( + ( * UndefCntr0_arg4 lam2n3 ) ( * Nl3arg41 lam2n4 ) ( * Nl3arg42 lam2n5 ) ) 0 ) ( = ( + ( * UndefCntr0_arg5 lam2n3 ) ( * Nl3arg51 lam2n4 ) ( * Nl3arg52 lam2n5 ) ) 0 ) ( = ( + ( * UndefCntr0_arg6 lam2n3 ) ( * Nl3arg61 lam2n4 ) ( * Nl3arg62 lam2n5 ) ) 0 ) ( = ( + ( * ( - 1 ) lam2n0 ) ( * 1 lam2n1 ) ( * UndefCntr0_undef20 lam2n3 ) ( - ( + 0 ( * Nl3arg12 1 ) ) ) ) 0 ) ( = ( + ( * UndefCntr0_undef21 lam2n3 ) ( - ( + 0 ( * Nl3arg22 1 ) ) ) ) 0 ) ( = ( + ( * UndefCntr0_undef22 lam2n3 ) ( - ( + 0 ( * Nl3arg32 1 ) ) ) ) 0 ) ( = ( + ( * UndefCntr0_undef23 lam2n3 ) ( - ( + 0 ( * Nl3arg42 1 ) ) ) ) 0 ) ( = ( + ( * UndefCntr0_undef24 lam2n3 ) ( - ( + 0 ( * Nl3arg52 1 ) ) ) ) 0 ) ( = ( + ( * UndefCntr0_undef25 lam2n3 ) ( - ( + 0 ( * Nl3arg62 1 ) ) ) ) 0 ) ) ))
(assert ( or ( and ( >= lam3n0 0 ) ( >= lam3n1 0 ) ( >= lam3n2 0 ) ( >= lam3n3 0 ) ( >= lam3n4 0 ) ( >= lam3n5 0 ) ( > ( + ( * 3 lam3n0 ) ( * 3 lam3n1 ) ( * ( - 2 ) lam3n2 ) ( * UndefCntr1_CT lam3n3 ) ( * Nl3CT1 lam3n4 ) ( * Nl3CT2 lam3n5 ) ( - 1 ) ) 0 ) ( = ( + ( * ( - 1 ) lam3n0 ) ( * ( - 1 ) lam3n2 ) ( * UndefCntr1_arg1 lam3n3 ) ( * Nl3arg11 lam3n4 ) ( * Nl3arg12 lam3n5 ) ) 0 ) ( = ( + ( * UndefCntr1_arg2 lam3n3 ) ( * Nl3arg21 lam3n4 ) ( * Nl3arg22 lam3n5 ) ) 0 ) ( = ( + ( * UndefCntr1_arg3 lam3n3 ) ( * Nl3arg31 lam3n4 ) ( * Nl3arg32 lam3n5 ) ) 0 ) ( = ( + ( * UndefCntr1_arg4 lam3n3 ) ( * Nl3arg41 lam3n4 ) ( * Nl3arg42 lam3n5 ) ) 0 ) ( = ( + ( * UndefCntr1_arg5 lam3n3 ) ( * Nl3arg51 lam3n4 ) ( * Nl3arg52 lam3n5 ) ) 0 ) ( = ( + ( * UndefCntr1_arg6 lam3n3 ) ( * Nl3arg61 lam3n4 ) ( * Nl3arg62 lam3n5 ) ) 0 ) ( = ( + ( * ( - 1 ) lam3n1 ) ( * 1 lam3n2 ) ( * UndefCntr1_undef26 lam3n3 ) ) 0 ) ( = ( * UndefCntr1_undef27 lam3n3 ) 0 ) ( = ( * UndefCntr1_undef28 lam3n3 ) 0 ) ( = ( * UndefCntr1_undef29 lam3n3 ) 0 ) ( = ( * UndefCntr1_undef30 lam3n3 ) 0 ) ( = ( * UndefCntr1_undef31 lam3n3 ) 0 ) ) ( and ( >= lam4n0 0 ) ( >= lam4n1 0 ) ( >= lam4n2 0 ) ( >= lam4n3 0 ) ( >= lam4n4 0 ) ( >= lam4n5 0 ) ( > ( + ( * 3 lam4n0 ) ( * 3 lam4n1 ) ( * ( - 2 ) lam4n2 ) ( * UndefCntr1_CT lam4n3 ) ( * Nl3CT1 lam4n4 ) ( * Nl3CT2 lam4n5 ) ( - 1 ( + ( + ( + ( + ( + ( + Nl3CT1 ( * Nl3arg11 0 ) ) ( * Nl3arg21 0 ) ) ( * Nl3arg31 0 ) ) ( * Nl3arg41 0 ) ) ( * Nl3arg51 0 ) ) ( * Nl3arg61 0 ) ) ) ) 0 ) ( = ( + ( * ( - 1 ) lam4n0 ) ( * ( - 1 ) lam4n2 ) ( * UndefCntr1_arg1 lam4n3 ) ( * Nl3arg11 lam4n4 ) ( * Nl3arg12 lam4n5 ) ) 0 ) ( = ( + ( * UndefCntr1_arg2 lam4n3 ) ( * Nl3arg21 lam4n4 ) ( * Nl3arg22 lam4n5 ) ) 0 ) ( = ( + ( * UndefCntr1_arg3 lam4n3 ) ( * Nl3arg31 lam4n4 ) ( * Nl3arg32 lam4n5 ) ) 0 ) ( = ( + ( * UndefCntr1_arg4 lam4n3 ) ( * Nl3arg41 lam4n4 ) ( * Nl3arg42 lam4n5 ) ) 0 ) ( = ( + ( * UndefCntr1_arg5 lam4n3 ) ( * Nl3arg51 lam4n4 ) ( * Nl3arg52 lam4n5 ) ) 0 ) ( = ( + ( * UndefCntr1_arg6 lam4n3 ) ( * Nl3arg61 lam4n4 ) ( * Nl3arg62 lam4n5 ) ) 0 ) ( = ( + ( * ( - 1 ) lam4n1 ) ( * 1 lam4n2 ) ( * UndefCntr1_undef26 lam4n3 ) ( - ( + 0 ( * Nl3arg11 1 ) ) ) ) 0 ) ( = ( + ( * UndefCntr1_undef27 lam4n3 ) ( - ( + 0 ( * Nl3arg21 1 ) ) ) ) 0 ) ( = ( + ( * UndefCntr1_undef28 lam4n3 ) ( - ( + 0 ( * Nl3arg31 1 ) ) ) ) 0 ) ( = ( + ( * UndefCntr1_undef29 lam4n3 ) ( - ( + 0 ( * Nl3arg41 1 ) ) ) ) 0 ) ( = ( + ( * UndefCntr1_undef30 lam4n3 ) ( - ( + 0 ( * Nl3arg51 1 ) ) ) ) 0 ) ( = ( + ( * UndefCntr1_undef31 lam4n3 ) ( - ( + 0 ( * Nl3arg61 1 ) ) ) ) 0 ) ) ))
(assert ( or ( and ( >= lam3n0 0 ) ( >= lam3n1 0 ) ( >= lam3n2 0 ) ( >= lam3n3 0 ) ( >= lam3n4 0 ) ( >= lam3n5 0 ) ( > ( + ( * 3 lam3n0 ) ( * 3 lam3n1 ) ( * ( - 2 ) lam3n2 ) ( * UndefCntr1_CT lam3n3 ) ( * Nl3CT1 lam3n4 ) ( * Nl3CT2 lam3n5 ) ( - 1 ) ) 0 ) ( = ( + ( * ( - 1 ) lam3n0 ) ( * ( - 1 ) lam3n2 ) ( * UndefCntr1_arg1 lam3n3 ) ( * Nl3arg11 lam3n4 ) ( * Nl3arg12 lam3n5 ) ) 0 ) ( = ( + ( * UndefCntr1_arg2 lam3n3 ) ( * Nl3arg21 lam3n4 ) ( * Nl3arg22 lam3n5 ) ) 0 ) ( = ( + ( * UndefCntr1_arg3 lam3n3 ) ( * Nl3arg31 lam3n4 ) ( * Nl3arg32 lam3n5 ) ) 0 ) ( = ( + ( * UndefCntr1_arg4 lam3n3 ) ( * Nl3arg41 lam3n4 ) ( * Nl3arg42 lam3n5 ) ) 0 ) ( = ( + ( * UndefCntr1_arg5 lam3n3 ) ( * Nl3arg51 lam3n4 ) ( * Nl3arg52 lam3n5 ) ) 0 ) ( = ( + ( * UndefCntr1_arg6 lam3n3 ) ( * Nl3arg61 lam3n4 ) ( * Nl3arg62 lam3n5 ) ) 0 ) ( = ( + ( * ( - 1 ) lam3n1 ) ( * 1 lam3n2 ) ( * UndefCntr1_undef26 lam3n3 ) ) 0 ) ( = ( * UndefCntr1_undef27 lam3n3 ) 0 ) ( = ( * UndefCntr1_undef28 lam3n3 ) 0 ) ( = ( * UndefCntr1_undef29 lam3n3 ) 0 ) ( = ( * UndefCntr1_undef30 lam3n3 ) 0 ) ( = ( * UndefCntr1_undef31 lam3n3 ) 0 ) ) ( and ( >= lam5n0 0 ) ( >= lam5n1 0 ) ( >= lam5n2 0 ) ( >= lam5n3 0 ) ( >= lam5n4 0 ) ( >= lam5n5 0 ) ( > ( + ( * 3 lam5n0 ) ( * 3 lam5n1 ) ( * ( - 2 ) lam5n2 ) ( * UndefCntr1_CT lam5n3 ) ( * Nl3CT1 lam5n4 ) ( * Nl3CT2 lam5n5 ) ( - 1 ( + ( + ( + ( + ( + ( + Nl3CT2 ( * Nl3arg12 0 ) ) ( * Nl3arg22 0 ) ) ( * Nl3arg32 0 ) ) ( * Nl3arg42 0 ) ) ( * Nl3arg52 0 ) ) ( * Nl3arg62 0 ) ) ) ) 0 ) ( = ( + ( * ( - 1 ) lam5n0 ) ( * ( - 1 ) lam5n2 ) ( * UndefCntr1_arg1 lam5n3 ) ( * Nl3arg11 lam5n4 ) ( * Nl3arg12 lam5n5 ) ) 0 ) ( = ( + ( * UndefCntr1_arg2 lam5n3 ) ( * Nl3arg21 lam5n4 ) ( * Nl3arg22 lam5n5 ) ) 0 ) ( = ( + ( * UndefCntr1_arg3 lam5n3 ) ( * Nl3arg31 lam5n4 ) ( * Nl3arg32 lam5n5 ) ) 0 ) ( = ( + ( * UndefCntr1_arg4 lam5n3 ) ( * Nl3arg41 lam5n4 ) ( * Nl3arg42 lam5n5 ) ) 0 ) ( = ( + ( * UndefCntr1_arg5 lam5n3 ) ( * Nl3arg51 lam5n4 ) ( * Nl3arg52 lam5n5 ) ) 0 ) ( = ( + ( * UndefCntr1_arg6 lam5n3 ) ( * Nl3arg61 lam5n4 ) ( * Nl3arg62 lam5n5 ) ) 0 ) ( = ( + ( * ( - 1 ) lam5n1 ) ( * 1 lam5n2 ) ( * UndefCntr1_undef26 lam5n3 ) ( - ( + 0 ( * Nl3arg12 1 ) ) ) ) 0 ) ( = ( + ( * UndefCntr1_undef27 lam5n3 ) ( - ( + 0 ( * Nl3arg22 1 ) ) ) ) 0 ) ( = ( + ( * UndefCntr1_undef28 lam5n3 ) ( - ( + 0 ( * Nl3arg32 1 ) ) ) ) 0 ) ( = ( + ( * UndefCntr1_undef29 lam5n3 ) ( - ( + 0 ( * Nl3arg42 1 ) ) ) ) 0 ) ( = ( + ( * UndefCntr1_undef30 lam5n3 ) ( - ( + 0 ( * Nl3arg52 1 ) ) ) ) 0 ) ( = ( + ( * UndefCntr1_undef31 lam5n3 ) ( - ( + 0 ( * Nl3arg62 1 ) ) ) ) 0 ) ) ))
(assert ( and ( <= ( + Nl3CT1 ( * Nl3arg11 FV_arg1_2 ) ( * Nl3arg21 FV_arg2_2 ) ( * Nl3arg31 FV_arg3_2 ) ( * Nl3arg41 FV_arg4_2 ) ( * Nl3arg51 FV_arg5_2 ) ( * Nl3arg61 FV_arg6_2 ) ) 0 ) ( <= ( + Nl3CT2 ( * Nl3arg12 FV_arg1_2 ) ( * Nl3arg22 FV_arg2_2 ) ( * Nl3arg32 FV_arg3_2 ) ( * Nl3arg42 FV_arg4_2 ) ( * Nl3arg52 FV_arg5_2 ) ( * Nl3arg62 FV_arg6_2 ) ) 0 ) ))
(assert ( or ( not ( = UndefCntr0_arg1 0 ) ) ( not ( = UndefCntr0_arg2 0 ) ) ( not ( = UndefCntr0_arg3 0 ) ) ( not ( = UndefCntr0_arg4 0 ) ) ( not ( = UndefCntr0_arg5 0 ) ) ( not ( = UndefCntr0_arg6 0 ) ) ( not ( = UndefCntr0_undef20 0 ) ) ( not ( = UndefCntr0_undef21 0 ) ) ( not ( = UndefCntr0_undef22 0 ) ) ( not ( = UndefCntr0_undef23 0 ) ) ( not ( = UndefCntr0_undef24 0 ) ) ( not ( = UndefCntr0_undef25 0 ) ) ( = UndefCntr0_CT 0 ) ))
(assert ( or ( and ( = UndefCntr0_arg1 0 ) ( = UndefCntr0_arg2 0 ) ( = UndefCntr0_arg3 0 ) ( = UndefCntr0_arg4 0 ) ( = UndefCntr0_arg5 0 ) ( = UndefCntr0_arg6 0 ) ) ( or ( not ( = UndefCntr0_undef20 0 ) ) ( not ( = UndefCntr0_undef21 0 ) ) ( not ( = UndefCntr0_undef22 0 ) ) ( not ( = UndefCntr0_undef23 0 ) ) ( not ( = UndefCntr0_undef24 0 ) ) ( not ( = UndefCntr0_undef25 0 ) ) ) ))
(assert ( or ( not ( = UndefCntr1_arg1 0 ) ) ( not ( = UndefCntr1_arg2 0 ) ) ( not ( = UndefCntr1_arg3 0 ) ) ( not ( = UndefCntr1_arg4 0 ) ) ( not ( = UndefCntr1_arg5 0 ) ) ( not ( = UndefCntr1_arg6 0 ) ) ( not ( = UndefCntr1_undef26 0 ) ) ( not ( = UndefCntr1_undef27 0 ) ) ( not ( = UndefCntr1_undef28 0 ) ) ( not ( = UndefCntr1_undef29 0 ) ) ( not ( = UndefCntr1_undef30 0 ) ) ( not ( = UndefCntr1_undef31 0 ) ) ( = UndefCntr1_CT 0 ) ))
(assert ( or ( and ( = UndefCntr1_arg1 0 ) ( = UndefCntr1_arg2 0 ) ( = UndefCntr1_arg3 0 ) ( = UndefCntr1_arg4 0 ) ( = UndefCntr1_arg5 0 ) ( = UndefCntr1_arg6 0 ) ) ( or ( not ( = UndefCntr1_undef26 0 ) ) ( not ( = UndefCntr1_undef27 0 ) ) ( not ( = UndefCntr1_undef28 0 ) ) ( not ( = UndefCntr1_undef29 0 ) ) ( not ( = UndefCntr1_undef30 0 ) ) ( not ( = UndefCntr1_undef31 0 ) ) ) ))
(assert ( or ( and ( >= lam8n0 0 ) ( >= lam8n1 0 ) ( >= lam8n2 0 ) ( > ( + ( * 3 lam8n0 ) ( * Nl3CT1 lam8n1 ) ( * Nl3CT2 lam8n2 ) ( - 1 ) ) 0 ) ( = ( + ( * ( - 1 ) lam8n0 ) ( * Nl3arg11 lam8n1 ) ( * Nl3arg12 lam8n2 ) ) 0 ) ( = ( + ( * Nl3arg21 lam8n1 ) ( * Nl3arg22 lam8n2 ) ) 0 ) ( = ( + ( * Nl3arg31 lam8n1 ) ( * Nl3arg32 lam8n2 ) ) 0 ) ( = ( + ( * Nl3arg41 lam8n1 ) ( * Nl3arg42 lam8n2 ) ) 0 ) ( = ( + ( * Nl3arg51 lam8n1 ) ( * Nl3arg52 lam8n2 ) ) 0 ) ( = ( + ( * Nl3arg61 lam8n1 ) ( * Nl3arg62 lam8n2 ) ) 0 ) ) ( and ( and ( >= lam9n0 0 ) ( >= lam9n1 0 ) ( >= lam9n2 0 ) ( > ( + ( * 3 lam9n0 ) ( * Nl3CT1 lam9n1 ) ( * Nl3CT2 lam9n2 ) ( - 1 ( + 0 ( * ( - 1 ) UndefDef0undef20_CT ) ) ) ) 0 ) ( = ( + ( * ( - 1 ) lam9n0 ) ( * Nl3arg11 lam9n1 ) ( * Nl3arg12 lam9n2 ) ( - ( * UndefDef0undef20_arg1 ( - 1 ) ) ) ) 0 ) ( = ( + ( * Nl3arg21 lam9n1 ) ( * Nl3arg22 lam9n2 ) ( - ( * UndefDef0undef20_arg2 ( - 1 ) ) ) ) 0 ) ( = ( + ( * Nl3arg31 lam9n1 ) ( * Nl3arg32 lam9n2 ) ( - ( * UndefDef0undef20_arg3 ( - 1 ) ) ) ) 0 ) ( = ( + ( * Nl3arg41 lam9n1 ) ( * Nl3arg42 lam9n2 ) ( - ( * UndefDef0undef20_arg4 ( - 1 ) ) ) ) 0 ) ( = ( + ( * Nl3arg51 lam9n1 ) ( * Nl3arg52 lam9n2 ) ( - ( * UndefDef0undef20_arg5 ( - 1 ) ) ) ) 0 ) ( = ( + ( * Nl3arg61 lam9n1 ) ( * Nl3arg62 lam9n2 ) ( - ( * UndefDef0undef20_arg6 ( - 1 ) ) ) ) 0 ) ) ( and ( >= lam10n0 0 ) ( >= lam10n1 0 ) ( >= lam10n2 0 ) ( > ( + ( * 3 lam10n0 ) ( * Nl3CT1 lam10n1 ) ( * Nl3CT2 lam10n2 ) ( - 1 ( + ( + 2 0 ) ( * 1 UndefDef0undef20_CT ) ) ) ) 0 ) ( = ( + ( * ( - 1 ) lam10n0 ) ( * Nl3arg11 lam10n1 ) ( * Nl3arg12 lam10n2 ) ( - ( + ( - 1 ) ( * UndefDef0undef20_arg1 1 ) ) ) ) 0 ) ( = ( + ( * Nl3arg21 lam10n1 ) ( * Nl3arg22 lam10n2 ) ( - ( * UndefDef0undef20_arg2 1 ) ) ) 0 ) ( = ( + ( * Nl3arg31 lam10n1 ) ( * Nl3arg32 lam10n2 ) ( - ( * UndefDef0undef20_arg3 1 ) ) ) 0 ) ( = ( + ( * Nl3arg41 lam10n1 ) ( * Nl3arg42 lam10n2 ) ( - ( * UndefDef0undef20_arg4 1 ) ) ) 0 ) ( = ( + ( * Nl3arg51 lam10n1 ) ( * Nl3arg52 lam10n2 ) ( - ( * UndefDef0undef20_arg5 1 ) ) ) 0 ) ( = ( + ( * Nl3arg61 lam10n1 ) ( * Nl3arg62 lam10n2 ) ( - ( * UndefDef0undef20_arg6 1 ) ) ) 0 ) ) ( or ( = UndefCntr0_undef20 0 ) ( and ( >= lam11n0 0 ) ( >= lam11n1 0 ) ( >= lam11n2 0 ) ( > ( + ( * 3 lam11n0 ) ( * Nl3CT1 lam11n1 ) ( * Nl3CT2 lam11n2 ) ( - 1 ( + ( + ( + ( + ( + ( + ( + ( + ( + ( + ( + ( + UndefCntr0_CT 0 ) 0 ) 0 ) 0 ) 0 ) 0 ) ( * UndefCntr0_undef20 UndefDef0undef20_CT ) ) 0 ) 0 ) 0 ) 0 ) 0 ) ) ) 0 ) ( = ( + ( * ( - 1 ) lam11n0 ) ( * Nl3arg11 lam11n1 ) ( * Nl3arg12 lam11n2 ) ( - ( + UndefCntr0_arg1 ( * UndefDef0undef20_arg1 UndefCntr0_undef20 ) ) ) ) 0 ) ( = ( + ( * Nl3arg21 lam11n1 ) ( * Nl3arg22 lam11n2 ) ( - ( + UndefCntr0_arg2 ( * UndefDef0undef20_arg2 UndefCntr0_undef20 ) ) ) ) 0 ) ( = ( + ( * Nl3arg31 lam11n1 ) ( * Nl3arg32 lam11n2 ) ( - ( + UndefCntr0_arg3 ( * UndefDef0undef20_arg3 UndefCntr0_undef20 ) ) ) ) 0 ) ( = ( + ( * Nl3arg41 lam11n1 ) ( * Nl3arg42 lam11n2 ) ( - ( + UndefCntr0_arg4 ( * UndefDef0undef20_arg4 UndefCntr0_undef20 ) ) ) ) 0 ) ( = ( + ( * Nl3arg51 lam11n1 ) ( * Nl3arg52 lam11n2 ) ( - ( + UndefCntr0_arg5 ( * UndefDef0undef20_arg5 UndefCntr0_undef20 ) ) ) ) 0 ) ( = ( + ( * Nl3arg61 lam11n1 ) ( * Nl3arg62 lam11n2 ) ( - ( + UndefCntr0_arg6 ( * UndefDef0undef20_arg6 UndefCntr0_undef20 ) ) ) ) 0 ) ( = ( - UndefCntr0_undef21 ) 0 ) ( = ( - UndefCntr0_undef22 ) 0 ) ( = ( - UndefCntr0_undef23 ) 0 ) ( = ( - UndefCntr0_undef24 ) 0 ) ( = ( - UndefCntr0_undef25 ) 0 ) ) ) ) ))
(assert ( or ( and ( >= lam12n0 0 ) ( >= lam12n1 0 ) ( >= lam12n2 0 ) ( > ( + ( * 3 lam12n0 ) ( * Nl3CT1 lam12n1 ) ( * Nl3CT2 lam12n2 ) ( - 1 ) ) 0 ) ( = ( + ( * ( - 1 ) lam12n0 ) ( * Nl3arg11 lam12n1 ) ( * Nl3arg12 lam12n2 ) ) 0 ) ( = ( + ( * Nl3arg21 lam12n1 ) ( * Nl3arg22 lam12n2 ) ) 0 ) ( = ( + ( * Nl3arg31 lam12n1 ) ( * Nl3arg32 lam12n2 ) ) 0 ) ( = ( + ( * Nl3arg41 lam12n1 ) ( * Nl3arg42 lam12n2 ) ) 0 ) ( = ( + ( * Nl3arg51 lam12n1 ) ( * Nl3arg52 lam12n2 ) ) 0 ) ( = ( + ( * Nl3arg61 lam12n1 ) ( * Nl3arg62 lam12n2 ) ) 0 ) ) ( and ( and ( >= lam13n0 0 ) ( >= lam13n1 0 ) ( >= lam13n2 0 ) ( > ( + ( * 3 lam13n0 ) ( * Nl3CT1 lam13n1 ) ( * Nl3CT2 lam13n2 ) ( - 1 ( + 3 ( * ( - 1 ) UndefDef1undef26_CT ) ) ) ) 0 ) ( = ( + ( * ( - 1 ) lam13n0 ) ( * Nl3arg11 lam13n1 ) ( * Nl3arg12 lam13n2 ) ( - ( * UndefDef1undef26_arg1 ( - 1 ) ) ) ) 0 ) ( = ( + ( * Nl3arg21 lam13n1 ) ( * Nl3arg22 lam13n2 ) ( - ( * UndefDef1undef26_arg2 ( - 1 ) ) ) ) 0 ) ( = ( + ( * Nl3arg31 lam13n1 ) ( * Nl3arg32 lam13n2 ) ( - ( * UndefDef1undef26_arg3 ( - 1 ) ) ) ) 0 ) ( = ( + ( * Nl3arg41 lam13n1 ) ( * Nl3arg42 lam13n2 ) ( - ( * UndefDef1undef26_arg4 ( - 1 ) ) ) ) 0 ) ( = ( + ( * Nl3arg51 lam13n1 ) ( * Nl3arg52 lam13n2 ) ( - ( * UndefDef1undef26_arg5 ( - 1 ) ) ) ) 0 ) ( = ( + ( * Nl3arg61 lam13n1 ) ( * Nl3arg62 lam13n2 ) ( - ( * UndefDef1undef26_arg6 ( - 1 ) ) ) ) 0 ) ) ( and ( >= lam14n0 0 ) ( >= lam14n1 0 ) ( >= lam14n2 0 ) ( > ( + ( * 3 lam14n0 ) ( * Nl3CT1 lam14n1 ) ( * Nl3CT2 lam14n2 ) ( - 1 ( + ( + ( - 2 ) 0 ) ( * 1 UndefDef1undef26_CT ) ) ) ) 0 ) ( = ( + ( * ( - 1 ) lam14n0 ) ( * Nl3arg11 lam14n1 ) ( * Nl3arg12 lam14n2 ) ( - ( + ( - 1 ) ( * UndefDef1undef26_arg1 1 ) ) ) ) 0 ) ( = ( + ( * Nl3arg21 lam14n1 ) ( * Nl3arg22 lam14n2 ) ( - ( * UndefDef1undef26_arg2 1 ) ) ) 0 ) ( = ( + ( * Nl3arg31 lam14n1 ) ( * Nl3arg32 lam14n2 ) ( - ( * UndefDef1undef26_arg3 1 ) ) ) 0 ) ( = ( + ( * Nl3arg41 lam14n1 ) ( * Nl3arg42 lam14n2 ) ( - ( * UndefDef1undef26_arg4 1 ) ) ) 0 ) ( = ( + ( * Nl3arg51 lam14n1 ) ( * Nl3arg52 lam14n2 ) ( - ( * UndefDef1undef26_arg5 1 ) ) ) 0 ) ( = ( + ( * Nl3arg61 lam14n1 ) ( * Nl3arg62 lam14n2 ) ( - ( * UndefDef1undef26_arg6 1 ) ) ) 0 ) ) ( or ( = UndefCntr1_undef26 0 ) ( and ( >= lam15n0 0 ) ( >= lam15n1 0 ) ( >= lam15n2 0 ) ( > ( + ( * 3 lam15n0 ) ( * Nl3CT1 lam15n1 ) ( * Nl3CT2 lam15n2 ) ( - 1 ( + ( + ( + ( + ( + ( + ( + ( + ( + ( + ( + ( + UndefCntr1_CT 0 ) 0 ) 0 ) 0 ) 0 ) 0 ) ( * UndefCntr1_undef26 UndefDef1undef26_CT ) ) 0 ) 0 ) 0 ) 0 ) 0 ) ) ) 0 ) ( = ( + ( * ( - 1 ) lam15n0 ) ( * Nl3arg11 lam15n1 ) ( * Nl3arg12 lam15n2 ) ( - ( + UndefCntr1_arg1 ( * UndefDef1undef26_arg1 UndefCntr1_undef26 ) ) ) ) 0 ) ( = ( + ( * Nl3arg21 lam15n1 ) ( * Nl3arg22 lam15n2 ) ( - ( + UndefCntr1_arg2 ( * UndefDef1undef26_arg2 UndefCntr1_undef26 ) ) ) ) 0 ) ( = ( + ( * Nl3arg31 lam15n1 ) ( * Nl3arg32 lam15n2 ) ( - ( + UndefCntr1_arg3 ( * UndefDef1undef26_arg3 UndefCntr1_undef26 ) ) ) ) 0 ) ( = ( + ( * Nl3arg41 lam15n1 ) ( * Nl3arg42 lam15n2 ) ( - ( + UndefCntr1_arg4 ( * UndefDef1undef26_arg4 UndefCntr1_undef26 ) ) ) ) 0 ) ( = ( + ( * Nl3arg51 lam15n1 ) ( * Nl3arg52 lam15n2 ) ( - ( + UndefCntr1_arg5 ( * UndefDef1undef26_arg5 UndefCntr1_undef26 ) ) ) ) 0 ) ( = ( + ( * Nl3arg61 lam15n1 ) ( * Nl3arg62 lam15n2 ) ( - ( + UndefCntr1_arg6 ( * UndefDef1undef26_arg6 UndefCntr1_undef26 ) ) ) ) 0 ) ( = ( - UndefCntr1_undef27 ) 0 ) ( = ( - UndefCntr1_undef28 ) 0 ) ( = ( - UndefCntr1_undef29 ) 0 ) ( = ( - UndefCntr1_undef30 ) 0 ) ( = ( - UndefCntr1_undef31 ) 0 ) ) ) ) ))
(assert ( and ( >= lam16n0 0 ) ( >= lam16n1 0 ) ( >= lam16n2 0 ) ( > ( + ( * ( - 2 ) lam16n0 ) ( * Nl3CT1 lam16n1 ) ( * Nl3CT2 lam16n2 ) ( - 1 ) ) 0 ) ( = ( + ( * 1 lam16n0 ) ( * Nl3arg11 lam16n1 ) ( * Nl3arg12 lam16n2 ) ) 0 ) ( = ( + ( * Nl3arg21 lam16n1 ) ( * Nl3arg22 lam16n2 ) ) 0 ) ( = ( + ( * Nl3arg31 lam16n1 ) ( * Nl3arg32 lam16n2 ) ) 0 ) ( = ( + ( * Nl3arg41 lam16n1 ) ( * Nl3arg42 lam16n2 ) ) 0 ) ( = ( + ( * Nl3arg51 lam16n1 ) ( * Nl3arg52 lam16n2 ) ) 0 ) ( = ( + ( * Nl3arg61 lam16n1 ) ( * Nl3arg62 lam16n2 ) ) 0 ) ))
(assert ( and ( and ( <= ( + Nl3CT1 ( * Nl3arg11 FV_arg1_3 ) ( * Nl3arg21 FV_arg2_3 ) ( * Nl3arg31 FV_arg3_3 ) ( * Nl3arg41 FV_arg4_3 ) ( * Nl3arg51 FV_arg5_3 ) ( * Nl3arg61 FV_arg6_3 ) ) 0 ) ( <= ( + Nl3CT2 ( * Nl3arg12 FV_arg1_3 ) ( * Nl3arg22 FV_arg2_3 ) ( * Nl3arg32 FV_arg3_3 ) ( * Nl3arg42 FV_arg4_3 ) ( * Nl3arg52 FV_arg5_3 ) ( * Nl3arg62 FV_arg6_3 ) ) 0 ) ) ( or ( and ( <= ( * ( - 1 ) FV_undef20_3 ) 0 ) ( <= ( + 2 FV_undef20_3 ( * ( - 1 ) FV_arg1_3 ) ) 0 ) ( <= ( + 3 ( * ( - 1 ) FV_arg1_3 ) ) 0 ) ) ( and ( <= ( + 3 ( * ( - 1 ) FV_arg1_3 ) ) 0 ) ( <= ( + 3 ( * ( - 1 ) FV_undef26_3 ) ) 0 ) ( <= ( + ( - 2 ) ( * ( - 1 ) FV_arg1_3 ) FV_undef26_3 ) 0 ) ) ) ))
(check-sat)
(exit)
